(set-info :smt-lib-version 2.6)
(set-logic QF_NIA)
(set-info :source |AProve team, see http://aprove.informatik.rwth-aachen.de/, submitted for SMT-COMP 2014|)
(set-info :category "industrial")
(set-info :status unsat)
(declare-fun a__1 () Int)
(declare-fun a__2 () Int)
(assert (and (>= (+ a__1 (* (- 0 1) a__2)) 0) (>= (+ a__2 (* (- 0 1) a__1)) 0) (not (and (= (+ a__1 (* (- 0 1) a__2)) 0) (= (+ a__2 (* (- 0 1) a__1)) 0))) (>= a__1 0) (>= a__2 0)))
(check-sat)
;;(get-assignment)
;;(get-model)
(exit)
